
Gurobi 9.1.1 (linux64, Python) logging started Mon Mar 29 16:37:24 2021

Academic license - for non-commercial use only - expires 2021-05-13
Using license file /home/paulo/gurobi.lic
Set parameter LogFile to value gurobi.log
